; benchmark generated from python API
(set-info :status unknown)
(declare-fun L_2 () Real)
(declare-fun S_3 () Real)
(declare-fun C () Real)
(declare-fun A_2 () Real)
(declare-fun S_2 () Real)
(declare-fun L_3 () Real)
(declare-fun A_4 () Real)
(declare-fun L_1 () Real)
(declare-fun A_1 () Real)
(declare-fun S_1 () Real)
(declare-fun L_0 () Real)
(declare-fun S_0 () Real)
(declare-fun A_0 () Real)
(declare-fun A_3 () Real)
(declare-fun S_4 () Real)
(declare-fun B () Real)
(declare-fun L_5 () Real)
(declare-fun A_5 () Real)
(declare-fun S_5 () Real)
(assert
 (let (($x7309 (<= (+ A_4 (* (- 1.0) L_3) (* (- 1.0) A_2) (* (- 2.0) C) L_2) 0.0)))
 (let (($x7394 (<= (+ A_4 (* (- 1.0) L_3) (* (- 2.0) C) (* (- 1.0) S_3)) 0.0)))
 (let (($x39 (>= L_0 0.0)))
 (let (($x903 (>= C 5.0)))
 (let (($x721 (>= B 5.0)))
 (let (($x7312 (<= (+ A_4 (* (- 1.0) L_3) (* (- 1.0) A_1) (* (- 3.0) C) L_1) 0.0)))
 (let (($x7403 (<= (+ A_4 (* (- 1.0) L_3) (* (- 4.0) C) (* (- 1.0) S_1)) 0.0)))
 (let (($x7391 (<= (+ A_4 (* (- 1.0) L_3) (* (- 3.0) C) (* (- 1.0) S_2)) 0.0)))
 (let (($x7397 (<= (+ A_4 (* (- 1.0) L_3) (* (- 5.0) C) (* (- 1.0) S_0)) 0.0)))
 (let (($x7400 (<= (+ A_4 (* (- 1.0) L_3) (* (- 1.0) A_0) (* (- 4.0) C) L_0) 0.0)))
 (let (($x2116 (<= (+ A_2 (* (- 1.0) S_3) (* (- 1.0) L_2)) 0.0)))
 (let (($x11179 (or $x2116 (<= (+ A_1 C (* (- 1.0) S_3) (* (- 1.0) L_1)) 0.0) (not (<= 0.0 (+ (* (- 1.0) A_1) C S_0 L_1))))))
 (let (($x7346 (<= 0.0 (+ (* (- 1.0) A_1) C S_0 L_1))))
 (let (($x7527 (or (<= (+ (* 2.0 C) (* (- 1.0) S_3) S_0) 0.0) $x2116 $x7346)))
 (let (($x2523 (<= (+ A_1 (* (- 1.0) S_2) (* (- 1.0) L_1)) 0.0)))
 (let ((?x262 (* (- 1.0) B)))
 (let ((?x305 (* (- 1.0) L_3)))
 (let ((?x346 (* (- 1.0) C)))
 (let ((?x433 (* (- 1.0) A_2)))
 (let (($x7326 (<= 0.0 (+ A_3 ?x433 ?x346 L_2 ?x305 ?x262))))
 (let (($x7327 (not $x7326)))
 (let (($x3372 (= (+ (* (- 1.0) A_3) A_2 C (* (- 1.0) L_2) L_3 B) 0.0)))
 (let (($x3525 (<= (+ (* (- 1.0) A_3) A_1 (* 2.0 C) L_3 (* (- 1.0) L_0)) 0.0)))
 (let (($x56 (= L_1 L_0)))
 (let (($x2182 (not $x56)))
 (let (($x76 (= L_3 L_2)))
 (let (($x525 (<= 0.0 (+ ?x433 A_1 C (* (- 1.0) L_1) L_2 ?x262))))
 (let (($x523 (not $x525)))
 (let (($x1262 (= (+ (* (- 1.0) A_3) A_1 (* 2.0 C) (* (- 1.0) L_1) L_3) 0.0)))
 (let (($x571 (<= 0.0 (+ (* (- 1.0) L_1) L_0))))
 (let (($x7321 (<= 0.0 (+ A_3 (* (- 1.0) A_1) (* (- 2.0) C) L_1 ?x305 ?x262))))
 (let ((?x271 (* (- 1.0) L_1)))
 (let ((?x1138 (* 2.0 C)))
 (let ((?x436 (* (- 1.0) A_3)))
 (let ((?x288 (* (- 1.0) L_2)))
 (let ((?x887 (+ L_1 ?x288)))
 (let (($x7223 (<= 0.0 ?x887)))
 (let (($x7224 (not $x7223)))
 (let (($x7349 (or $x76 (<= (+ ?x436 (* 3.0 C) S_0 L_3 B) 0.0) $x7321 $x7326)))
 (let (($x3521 (<= (+ A_3 (* (- 1.0) A_0) (* (- 3.0) C) ?x305 ?x262 L_0) 0.0)))
 (let (($x66 (= L_2 L_1)))
 (let (($x7219 (<= 0.0 (+ A_2 (* (- 1.0) A_1) ?x346 L_1 ?x288 ?x262))))
 (let (($x11321 (or $x66 $x2182 (<= (+ ?x433 A_1 C L_2 (* (- 1.0) L_0)) 0.0))))
 (let (($x2202 (<= (+ A_2 (* (- 1.0) A_0) (* (- 2.0) C) ?x288 ?x262 L_0) 0.0)))
 (let (($x2082 (<= (+ A_2 (* (- 1.0) S_3) ?x288 ?x262) 0.0)))
 (let (($x11362 (or $x56 (<= (+ (* (- 1.0) A_1) (* (- 2.0) C) S_3 L_1 B) 0.0))))
 (let ((?x442 (* (- 1.0) A_5)))
 (let ((?x1253 (+ A_4 ?x442 C B)))
 (let (($x551 (<= 0.0 ?x1253)))
 (let (($x563 (= L_5 L_3)))
 (let (($x7096 (not $x563)))
 (let (($x593 (<= (+ A_4 ?x305 (* (- 1.0) A_1) (* (- 3.0) C) L_1 B) 0.0)))
 (let (($x1232 (<= (+ A_1 (* (- 1.0) S_2) ?x271 ?x262) 0.0)))
 (let (($x140 (>= S_5 S_4)))
 (let (($x128 (>= S_1 S_0)))
 (let (($x131 (>= S_2 S_1)))
 (let (($x134 (>= S_3 S_2)))
 (let (($x142 (>= A_1 A_0)))
 (let (($x143 (>= A_2 A_1)))
 (let (($x144 (>= A_3 A_2)))
 (let (($x145 (>= A_4 A_3)))
 (and (<= (+ A_4 ?x305) S_4) $x145 $x144 $x143 $x142 $x134 $x131 $x128 $x140 (or (not $x571) $x56) $x1232 (<= (+ A_1 (* (- 1.0) A_0) ?x346 ?x271 ?x262 L_0) 0.0) (or $x66 $x523) (<= (+ A_1 (* (- 2.0) C) (* (- 1.0) S_0) ?x271 ?x262) 0.0) (<= (+ A_1 ?x346 (* (- 1.0) S_1) ?x271 ?x262) 0.0) (or $x56 $x66 (= (+ ?x433 A_1 C ?x271 L_2) 0.0)) (or $x56 (<= (+ (* (- 1.0) A_1) S_1 L_1 B) 0.0)) (or $x56 (<= (+ (* (- 1.0) A_1) C S_0 L_1 B) 0.0)) (or $x56 $x76 $x525 $x1262) (or $x56 (<= 0.0 (+ ?x433 A_1 C)) (not $x66)) (or $x525 (<= (+ A_1 C (* (- 1.0) S_3) ?x271 ?x262) 0.0)) (or (not $x551) $x563) (or $x56 $x593) (<= (+ S_5 (* (- 1.0) A_4) L_3 ?x346) 0.0) (or $x56 (<= (+ (* (- 1.0) A_1) ?x346 S_2 L_1 B) 0.0)) (or $x563 (= (+ A_4 ?x305 ?x442 C L_5 B) 0.0)) (or $x7096 $x551) $x11362 (or $x56 (<= 0.0 (+ ?x436 A_1 ?x1138 ?x271 L_2)) (not $x76)) (<= (+ S_5 ?x442 L_5) 0.0) (or $x66 (<= (+ ?x433 S_2 L_2 B) 0.0)) $x2082 (<= (+ A_2 (* (- 2.0) C) (* (- 1.0) S_1) ?x288 ?x262) 0.0) (<= (+ A_2 (* (- 3.0) C) (* (- 1.0) S_0) ?x288 ?x262) 0.0) (or (= (+ ?x433 A_1 C ?x271 L_2 B) 0.0) (not $x7219)) $x2202 (or $x66 (<= (+ ?x433 C S_1 L_2 B) 0.0)) $x11321 (or $x66 $x7219 (<= (+ ?x433 ?x1138 S_0 L_2 B) 0.0)) (or $x66 (<= (+ A_3 ?x433 ?x346 ?x305 L_2) 0.0)) (or $x66 $x7224) (<= (+ A_2 ?x346 (* (- 1.0) S_2) ?x288 ?x262) 0.0) (or $x66 (<= (+ A_4 ?x305 ?x433 (* (- 2.0) C) L_2 B) 0.0)) (or $x76 (= (+ ?x436 A_2 C ?x288 L_3) 0.0) $x7223) (or $x66 (<= (+ ?x433 ?x346 S_3 L_2 B) 0.0)) (or $x76 (<= (+ ?x436 S_3 L_3 B) 0.0)) (or (<= 0.0 (+ ?x433 A_1 C ?x271 L_2)) $x7327) $x3521 (<= (+ A_3 (* (- 4.0) C) (* (- 1.0) S_0) ?x305 ?x262) 0.0) (or $x76 (<= (+ A_4 ?x436 ?x346 B) 0.0)) $x7349 (or $x76 $x7326 (<= (+ ?x436 ?x1138 S_1 L_3 B) 0.0)) (or $x76 (<= (+ ?x436 C S_2 L_3 B) 0.0)) (or $x76 (not (<= 0.0 (+ L_2 ?x305)))) (<= (+ A_3 ?x346 (* (- 1.0) S_3) ?x305 ?x262) 0.0) (or $x76 (<= (+ ?x436 A_2 C ?x271 L_3) 0.0) $x7224) (<= (+ A_3 (* (- 2.0) C) (* (- 1.0) S_2) ?x305 ?x262) 0.0) (<= (+ (* (- 2.0) C) S_1 (* (- 1.0) S_0)) 0.0) (or (= (+ ?x436 A_1 ?x1138 ?x271 L_3 B) 0.0) (not $x7321)) (or $x76 $x571 $x1262 $x7326) (or $x523 $x2116) (<= (+ A_3 (* (- 3.0) C) (* (- 1.0) S_1) ?x305 ?x262) 0.0) (or $x76 $x2182 $x3525 $x7326) (<= (+ (* (- 1.0) A_0) ?x346 S_1 L_0) 0.0) (or $x3372 $x7327) (or (<= (+ C (* (- 1.0) S_2) S_0) 0.0) $x2523) (or $x2116 (<= (+ C (* (- 1.0) S_3) S_1) 0.0)) (<= (+ (* (- 3.0) C) S_2 (* (- 1.0) S_0)) 0.0) $x7527 $x11179 (<= (+ (* (- 1.0) A_0) (* (- 3.0) C) S_3 L_0) 0.0) (<= (+ (* (- 3.0) C) S_3 (* (- 1.0) S_1)) 0.0) (<= (+ (* (- 1.0) A_0) (* (- 2.0) C) S_2 L_0) 0.0) (<= (+ (* (- 4.0) C) S_3 (* (- 1.0) S_0)) 0.0) $x7400 (<= (+ (* (- 2.0) C) S_2 (* (- 1.0) S_1)) 0.0) (<= (+ (* (- 1.0) A_1) (* (- 2.0) C) S_3 L_1) 0.0) $x7397 $x7391 $x7403 $x7312 $x721 $x903 $x39 (<= (+ (* (- 1.0) A_4) L_3 S_4) 0.0) (<= (+ ?x436 S_3 L_3) 0.0) (<= (+ A_4 ?x436 ?x346) 0.0) (<= (+ (* (- 1.0) A_0) S_0 L_0) 0.0) (<= (+ (* (- 1.0) A_1) L_1 S_1) 0.0) (<= (+ ?x433 S_2 L_2) 0.0) (<= (+ (* (- 1.0) A_1) ?x346 S_2 L_1) 0.0) $x7394 $x7309 (<= (+ (* (- 2.0) C) S_3 (* (- 1.0) S_2)) 0.0) (<= (+ ?x433 ?x346 S_3 L_2) 0.0))))))))))))))))))))))))))))))))))))))))))))))))))))))))))))))))
(check-sat)
